certificates/rado_a15_c81_N61.drat
-53 5 -59 0
-55 -59 -61 0
-2 -56 -58 -61 0
-53 -59 0
d -5 -53 -59 0
d -53 5 -59 0
7 -13 52 10 0
-59 -60 -61 0
-2 -5 59 0
-5 59 -61 0
-60 -61 0
d -59 -60 -61 0
2 5 -61 0
5 -61 0
d 2 5 -61 0
-61 0
-2 -5 0
d -2 59 -5 0
-5 0
11 0
55 0
2 0
-53 0
-6 0
-4 0
59 0
47 0
14 0
15 0
44 0
52 0
12 0
25 0
32 0
40 0
10 0
26 0
13 0
27 0
-8 0
-3 0
-1 0
-7 0
22 0
17 0
45 0
43 0
29 0
37 0
39 0
9 0
41 0
42 0
24 0
0
